p td 80 240
0 79
0 2
0 78
0 77
0 52
0 48
0 73
0 50
1 2
1 4
1 78
1 22
1 77
2 3
2 4
2 14
2 27
3 4
3 27
3 42
3 48
3 34
4 5
4 6
4 72
4 41
4 25
5 6
5 7
5 17
6 7
6 8
6 9
6 44
7 8
7 9
7 51
7 52
8 11
8 42
8 67
9 57
9 33
9 49
9 68
10 11
10 13
10 53
10 75
11 12
11 14
11 34
11 22
11 21
11 60
12 13
12 25
12 31
12 46
12 71
13 15
13 16
13 60
14 15
14 17
14 69
15 17
15 18
15 65
15 37
16 17
16 18
16 51
16 21
17 18
17 19
17 20
17 34
17 36
18 20
18 21
18 23
18 51
18 56
19 21
19 22
19 42
20 21
20 22
20 49
20 57
20 25
21 22
21 64
22 68
22 63
22 60
23 24
23 29
23 44
23 77
23 34
24 27
24 30
24 75
24 69
25 26
25 27
25 69
25 35
26 27
26 28
26 53
27 30
27 62
28 29
28 30
28 31
29 30
29 31
29 39
29 57
30 31
30 33
30 67
30 36
31 32
31 33
31 34
31 37
31 75
32 33
32 34
32 35
33 56
33 78
34 59
34 68
35 37
35 58
35 53
36 38
36 39
37 38
38 39
38 40
38 66
39 40
39 41
39 42
39 60
40 42
40 43
40 50
41 42
41 43
41 44
42 44
42 45
42 57
43 45
43 60
43 65
44 45
45 46
45 47
45 48
45 52
46 47
46 69
47 48
47 49
47 50
47 56
47 65
48 51
49 50
49 52
50 52
50 63
50 62
52 54
52 55
53 54
53 56
54 55
54 56
54 57
55 56
55 57
55 78
55 73
56 58
56 60
56 68
57 58
58 59
58 60
58 71
59 60
59 61
59 62
59 71
60 79
61 62
61 63
61 64
61 76
62 63
62 64
62 65
62 69
63 64
63 66
64 66
64 67
64 68
65 67
65 68
66 67
66 68
66 69
67 72
67 71
68 71
68 79
70 71
70 72
70 76
71 73
72 73
72 75
73 75
74 75
74 77
74 79
76 77
76 78
77 78
78 79
